
c turning on binary mode checking

c parsing input formula with 7397 variables and 28900 clauses

c finished parsing, read 5698 bytes from proof file

c detected empty clause; start verification via backward checking

c 2061 of 28900 clauses in core                            

c 46 of 1209 lemmas in core using 6503 resolution steps

c 0 RAT lemmas in core; 0 redundant literals in core lemmas

s VERIFIED

c verification time: 0.059 seconds
